Version identifier: 12.10.0.0 | 2019-11-26 | 843d4de
CPXPARAM_WorkMem                                 16384
CPXPARAM_MIP_Limits_TreeMemory                   24576
Tried aggregator 2 times.
Aggregator did 20 substitutions.
Reduced MIP has 94 rows, 120 columns, and 472 nonzeros.
Reduced MIP has 120 binaries, 0 generals, 0 SOSs, and 0 indicators.
Presolve time = 0,00 sec. (0,43 ticks)
Found incumbent of value 312,000000 after 0,00 sec. (0,73 ticks)
Probing time = 0,00 sec. (0,16 ticks)
Tried aggregator 1 time.
Detecting symmetries...
MIP Presolve eliminated 12 rows and 0 columns.
MIP Presolve added 24 rows and 0 columns.
Reduced MIP has 106 rows, 120 columns, and 484 nonzeros.
Reduced MIP has 120 binaries, 0 generals, 0 SOSs, and 0 indicators.
Presolve time = 0,00 sec. (0,52 ticks)
Probing time = 0,00 sec. (0,15 ticks)
Clique table members: 322.
MIP emphasis: balance optimality and feasibility.
MIP search method: dynamic search.
Parallel mode: deterministic, using up to 16 threads.
Root relaxation solution time = 0,00 sec. (0,20 ticks)

        Nodes                                         Cuts/
   Node  Left     Objective  IInf  Best Integer    Best Bound    ItCnt     Gap

*     0+    0                          312,0000        0,0000           100,00%
*     0+    0                          134,0000        0,0000           100,00%
      0     0       78,0000    51      134,0000       78,0000       25   41,79%
      0     0       78,0000    51      134,0000     Cuts: 126       36   41,79%
      0     0       78,0000    51      134,0000     Cuts: 103       77   41,79%
      0     0       78,0000    51      134,0000      Cuts: 92      104   41,79%
*     0+    0                          127,0000       78,0000            38,58%
      0     2       78,0000    43      127,0000       78,0000      104   38,58%
Elapsed time = 0,04 sec. (13,39 ticks, tree = 0,02 MB, solutions = 3)
*   655+  103                          121,0000       79,0000            34,71%

Clique cuts applied:  30
Cover cuts applied:  67
Implied bound cuts applied:  8
Mixed integer rounding cuts applied:  7
Zero-half cuts applied:  9
Gomory fractional cuts applied:  1

Root node processing (before b&c):
  Real time             =    0,04 sec. (13,32 ticks)
Parallel b&c, 16 threads:
  Real time             =    0,05 sec. (21,12 ticks)
  Sync time (average)   =    0,03 sec.
  Wait time (average)   =    0,00 sec.
                          ------------
Total (root+branch&cut) =    0,09 sec. (34,44 ticks)
